coords = array2d(1..22, 1..2, [359, 825, 354, 376, 878, 358, 325, 790, 532,
    502, 434, 369, 802, 455, 788, 178, 177, 663, 439, 351, 942, 911,
    650, 316, 187, 888, 814, 565, 288, 606, 601, 140, 271, 200, 557,
    679, 593, 558, 685, 716, 889, 958, 167, 852]);

n = 22;

